10000   83   73   30   22   61   71   80   67   78   
8   10000   49   18   31   12   68   54   48   83   
8   23   10000   78   72   80   68   40   73   19   
24   43   96   10000   67   39   29   25   73   50   
18   64   2   93   10000   80   37   23   17   58   
46   11   93   1   71   10000   71   59   34   48   
69   43   74   11   7   15   10000   70   29   12   
47   99   84   27   4   35   97   10000   59   56   
74   21   14   29   47   68   83   11   10000   28   
78   82   87   32   14   17   84   80   44   10000   
